
Gurobi 9.0.2 (linux64, Python) logging started Wed Aug 12 18:36:29 2020

Using license file /home/miguel/Downloads/opt/gurobi902/linux64/gurobi.lic
Set parameter LogFile to value gurobi.log
Academic license - for non-commercial use only

Gurobi 9.0.2 (linux64, Python) logging started Wed Aug 12 18:48:31 2020

Using license file /home/miguel/Downloads/opt/gurobi902/linux64/gurobi.lic
Set parameter LogFile to value gurobi.log
Academic license - for non-commercial use only
